<instance format="XCSP3" type="CSP">
  <variables>
    <var id="x0"> 1 6 12 </var>
    <var id="x1"> 0 4..6 </var>
    <var id="x2"> 0 1 4 6 </var>
    <var id="x3"> 0 1 6 14 </var>
    <var id="x4"> 1 4..6 9 14 </var>
    <var id="x5"> 1 6 12 14 </var>
    <var id="x6"> 0 6 9 14 </var>
    <var id="x7"> 0 4 5 12 </var>
    <var id="x8"> 6 8 10 13 </var>
    <var id="x9"> 6 10 13 </var>
    <var id="x10"> 2 13 14 </var>
    <var id="x11"> 5 6 8 13 </var>
    <var id="x12"> 5 6 8 14 </var>
    <var id="x13"> 6 8 10 14 </var>
    <var id="x14"> 5 10 13 </var>
    <var id="x15"> 1 3 10 </var>
    <var id="x16"> 2..4 8 </var>
    <var id="x17"> 2 3 14 </var>
    <var id="x18"> 1..4 14 </var>
    <var id="x19"> 1 4 8 10 </var>
    <var id="x20"> 1..4 </var>
    <var id="x21"> 4 10 </var>
    <var id="x22"> 6 8 12 </var>
    <var id="x23"> 0 6 </var>
    <var id="x24"> 4 8 12 </var>
    <var id="x25"> 0 2 6 8 14 </var>
    <var id="x26"> 4 6 8 14 </var>
    <var id="x27"> 0 2 6 14 </var>
    <var id="x28"> 0 4 6 14 </var>
    <var id="x29"> 1 6 10 13 </var>
    <var id="x30"> 0 1 6 10 13 </var>
    <var id="x31"> 0 9 13 </var>
    <var id="x32"> 6 9 13 </var>
    <var id="x33"> 1 10 11 </var>
    <var as="x30" id="x34"/>
    <var id="x35"> 0 6 10 11 </var>
    <var id="x36"> 0 3 4 </var>
    <var id="x37"> 0 3 9 13 </var>
    <var id="x38"> 1 3 4 7 </var>
    <var id="x39"> 0 1 3 4 13 </var>
    <var id="x40"> 0 1 13 </var>
    <var id="x41"> 0 4 7 </var>
    <var id="x42"> 0 1 7 13 </var>
    <var id="x43"> 6 7 10 12 </var>
    <var id="x44"> 0 6 </var>
    <var id="x45"> 6 7 14 </var>
    <var id="x46"> 6 9 14 </var>
    <var id="x47"> 0 6 7 9 14 </var>
    <var id="x48"> 0 6 7 10 14 </var>
    <var id="x49"> 0 7 12 14 </var>
    <var id="x50"> 1 6 10 </var>
    <var id="x51"> 5 6 8 12 </var>
    <var id="x52"> 1 5 8 10 12 </var>
    <var id="x53"> 1 2 6 </var>
    <var id="x54"> 1 2 6 8 10 </var>
    <var id="x55"> 1 5 6 8 </var>
    <var id="x56"> 1 2 12 </var>
    <var id="x57"> 0 3 12 13 </var>
    <var id="x58"> 6 8 12 13 </var>
    <var id="x59"> 3 6 7 </var>
    <var id="x60"> 8 12 </var>
    <var id="x61"> 6 8 12 </var>
    <var id="x62"> 0 6 7 </var>
    <var id="x63"> 0 7 12 13 </var>
    <var id="x64"> 3 6 7 10 13 </var>
    <var id="x65"> 3 13 14 </var>
    <var id="x66"> 5 6 13 </var>
    <var id="x67"> 3 6 7 14 </var>
    <var id="x68"> 3 6 13 </var>
    <var id="x69"> 6 10 14 </var>
    <var id="x70"> 7 13 14 </var>
    <var id="x71"> 1 7 13 </var>
    <var id="x72"> 0 1 13 </var>
    <var id="x73"> 1 5 14 </var>
    <var id="x74"> 0 7 11 14 </var>
    <var id="x75"> 0 7 11 14 </var>
    <var id="x76"> 0 1 7 13 14 </var>
    <var id="x77"> 0 5 7 13 </var>
    <var id="x78"> 3 7 13 </var>
    <var id="x79"> 2..4 </var>
    <var id="x80"> 2..4 7 </var>
    <var id="x81"> 2..4 13 </var>
    <var id="x82"> 2 13 </var>
    <var id="x83"> 11 12 </var>
    <var id="x84"> 4 7 11 </var>
    <var id="x85"> 0 14 </var>
    <var id="x86"> 4 6 8 </var>
    <var id="x87"> 1 4 6 14 </var>
    <var id="x88"> 1 4 8 11 </var>
    <var id="x89"> 0 1 6 8 14 </var>
    <var id="x90"> 1 6 8 11 14 </var>
    <var id="x91"> 0 6 11 14 </var>
    <var id="x92"> 1 6 7 12 13 </var>
    <var id="x93"> 2 4 6 </var>
    <var id="x94"> 1 2 6 13 </var>
    <var id="x95"> 2 6 7 </var>
    <var id="x96"> 4 6 7 </var>
    <var id="x97"> 1 2 7 12 13 </var>
    <var id="x98"> 4 7 12 13 </var>
    <var id="x99"> 0 2 4 6 8 </var>
    <var id="x100"> 4 6 8 </var>
    <var id="x101"> 1 4 8 10 </var>
    <var id="x102"> 1 4 6 8 </var>
    <var id="x103"> 1 6 8 10 </var>
    <var id="x104"> 0..2 </var>
    <var id="x105"> 0 4 10 </var>
  </variables>
  <constraints>
    <group>
      <allDifferent> %... </allDifferent>
      <args> x0 x1 x2 x3 x4 x5 x6 x7 </args>
      <args> x8 x9 x10 x11 x12 x13 x14 </args>
      <args> x15 x16 x17 x18 x19 x20 x21 </args>
      <args> x22 x23 x24 x25 x26 x27 x28 </args>
      <args> x29 x30 x31 x32 x33 x34 x35 </args>
      <args> x36 x37 x38 x39 x40 x41 x42 </args>
      <args> x43 x44 x45 x46 x47 x48 x49 </args>
      <args> x50 x51 x52 x53 x54 x55 x56 </args>
      <args> x57 x58 x59 x60 x61 x62 x63 </args>
      <args> x64 x65 x66 x67 x68 x69 x70 </args>
      <args> x71 x72 x73 x74 x75 x76 x77 </args>
      <args> x78 x79 x80 x81 x82 x83 x84 </args>
      <args> x85 x86 x87 x88 x89 x90 x91 </args>
      <args> x92 x93 x94 x95 x96 x97 x98 </args>
      <args> x99 x100 x101 x102 x103 x104 x105 </args>
      <args> x0 x8 x22 x29 x43 x71 x92 </args>
      <args> x9 x15 x23 x30 x50 x64 x78 </args>
      <args> x1 x16 x36 x44 x79 x93 x99 </args>
      <args> x10 x17 x31 x37 x57 x65 x85 </args>
      <args> x11 x32 x51 x58 x66 x86 x100 </args>
      <args> x18 x38 x45 x59 x67 x80 x87 </args>
      <args> x19 x24 x33 x52 x60 x88 x101 </args>
      <args> x2 x20 x39 x53 x68 x72 x81 </args>
      <args> x3 x25 x34 x40 x54 x82 x89 x94 </args>
      <args> x4 x12 x26 x46 x55 x73 x102 </args>
      <args> x5 x13 x61 x69 x83 x90 x103 </args>
      <args> x6 x27 x47 x62 x74 x91 x95 </args>
      <args> x28 x35 x41 x48 x75 x84 x96 </args>
      <args> x42 x49 x56 x70 x76 x97 x104 </args>
      <args> x7 x14 x21 x63 x77 x98 x105 </args>
    </group>
  </constraints>
</instance>

